objective value:                                  -12
t_n_2                                               1 	(obj:-1)
t_n_3                                               1 	(obj:-1)
t_n_475                                             1 	(obj:-1)
t_n_492                                             1 	(obj:-1)
t_n_524                                             1 	(obj:-1)
t_n_531                                             1 	(obj:-1)
t_n_617                                             1 	(obj:-1)
t_n_644                                             1 	(obj:-1)
t_n_688                                             1 	(obj:-1)
t_n_750                                             1 	(obj:-1)
t_n_814                                             1 	(obj:-1)
t_n_873                                             1 	(obj:-1)
